!Put Keywords Here, check Charge and Multiplicity.
#

 Guanidine Chloride

0  1
C          -1.50367         1.16765         0.02216
N          -2.65494         1.11111        -0.63741
N          -1.50041         1.21444         1.34938
H          -0.33052         1.14273        -1.65667
N          -0.35566         1.17727        -0.64545
H           0.53525         1.21956        -0.16694
H          -0.63702         1.25783         1.87581
H          -3.54338         1.10196        -0.15263
H          -2.68506         1.07523        -1.64844
H          -2.36111         1.20841         1.88192
Cl          2.38263         1.14394         1.02936

